10J3M/DAT/10J3MUTR-6.dat
10 3
9.479 44.2639
30.6605 10.5464
43.3198 23.5602
13.7119 30.8632
21.3548 29.574
0.8823 17.1406
30.0953 13.5478
47.1777 25.5549
37.0687 23.3564
21.3105 40.648
64.7638