10J3M/SOL/10J3MUTR-6.sol
solution status: optimal solution found
objective value:                     75.2612397892477
x#1#2                               0.725713108165412 	(obj:0)
x#1#3                               0.274286891834588 	(obj:0)
x#2#2                               0.403842640053173 	(obj:0)
x#2#3                               0.596157359946827 	(obj:0)
x#4#3                                               1 	(obj:0)
x#6#2                                               1 	(obj:0)
x#7#1                              0.0111333497622255 	(obj:0)
x#7#2                               0.496890522301334 	(obj:0)
x#8#1                                               1 	(obj:0)
x#9#2                                               1 	(obj:0)
x#10#1                              0.713210398192905 	(obj:0)
x#10#3                              0.286789601807095 	(obj:0)
z                                    75.2612397892477 	(obj:1)
